p wcnf 2000 200 1
1 1 0
1 2 0
1 3 0
1 4 0
1 5 0
1 6 0
1 7 0
1 8 0
1 9 0
1 10 0
1 11 0
1 12 0
1 1 1 2 2 2 2 2 2 2 2 2 0
1 2 2 2 2 2 2 2 2 2 2 2 0
1 2 2 2 2 3 3 3 3 3 3 3 0
1 3 3 3 3 3 3 3 3 3 3 3 0
1 3 3 3 4 4 4 4 4 4 4 4 0
1 4 4 4 4 4 4 4 4 4 4 4 0
1 4 5 5 5 5 5 5 5 5 5 5 0
1 5 5 5 5 5 6 6 6 6 6 6 0
1 6 6 6 6 6 6 6 6 6 6 7 0
1 7 7 7 7 7 7 7 7 7 7 7 0
1 7 7 7 8 8 8 8 8 8 8 8 0
1 8 8 8 8 8 8 8 8 8 8 8 0
1 8 8 8 8 8 9 9 9 9 9 9 0
1 9 9 9 9 9 9 9 9 9 10 10 0
1 10 10 10 10 10 10 10 10 10 10 10 0
1 10 10 10 10 10 10 10 10 10 11 11 0
1 11 11 11 11 11 11 11 11 11 11 11 0
1 11 11 11 11 11 12 12 12 12 12 12 0
1 12 12 12 12 12 12 12 12 12 12 13 0
1 13 13 13 13 13 13 13 13 13 13 13 0
1 13 13 14 14 14 14 14 14 14 14 14 0
1 14 14 14 14 14 14 14 14 14 14 15 0
1 15 15 15 15 15 15 15 15 15 15 15 0
1 15 16 16 16 16 16 16 16 16 16 16 0
1 16 16 16 16 16 16 16 16 16 16 16 0
1 16 16 17 17 17 17 17 17 17 17 17 0
1 17 17 17 17 17 17 17 17 17 17 18 0
1 18 18 18 18 18 18 18 18 18 18 18 0
1 18 18 18 18 18 18 18 18 18 19 19 0
1 19 19 19 19 19 19 19 19 19 19 19 0
1 19 19 19 19 20 20 20 20 20 20 20 0
1 20 20 20 20 20 20 20 20 20 20 20 0
1 21 21 21 21 21 21 21 21 21 21 21 0
1 21 21 21 21 22 22 22 22 22 22 22 0
1 22 22 22 22 22 22 23 23 23 23 23 0
1 23 23 23 23 23 23 23 23 23 23 23 0
1 23 23 23 23 23 23 23 23 23 23 23 0
1 23 23 23 23 23 24 24 24 24 24 24 0
1 24 24 24 24 24 24 24 24 24 24 24 0
1 24 24 25 25 25 25 25 25 25 25 25 0
1 25 25 25 25 25 25 25 25 25 25 25 0
1 25 26 26 26 26 26 26 26 26 26 26 0
1 26 26 26 26 26 26 26 26 26 26 26 0
1 27 27 27 27 27 27 27 27 27 27 27 0
1 27 27 27 27 27 27 27 27 27 27 28 0
1 28 28 28 28 28 28 28 28 28 28 28 0
1 28 28 28 28 28 28 28 28 29 29 29 0
1 29 29 29 29 29 29 29 29 29 29 29 0
1 29 29 29 30 30 30 30 30 30 30 30 0
1 30 30 30 30 30 30 31 31 31 31 31 0
1 31 31 31 31 31 31 31 32 32 32 32 0
1 32 32 32 32 32 32 32 32 32 32 33 0
1 33 33 33 33 33 33 33 33 33 33 33 0
1 33 33 33 33 33 34 34 34 34 34 34 0
1 34 34 34 34 34 34 34 34 34 34 35 0
1 35 35 35 35 35 35 35 35 35 35 35 0
1 36 36 36 36 36 36 36 36 36 36 36 0
1 36 36 36 36 36 36 36 36 36 37 37 0
1 37 37 37 37 37 37 37 37 37 37 37 0
1 38 38 38 38 38 38 38 38 38 38 38 0
1 38 38 38 38 38 38 39 39 39 39 39 0
1 39 39 39 39 39 39 39 39 39 39 39 0
1 40 40 40 40 40 40 40 40 40 40 40 0
1 40 40 40 40 40 40 40 40 40 40 40 0
1 41 41 41 41 41 41 41 41 41 41 41 0
1 41 41 41 41 41 41 41 41 41 41 41 0
1 41 41 42 42 42 42 42 42 42 42 42 0
1 42 42 42 42 42 42 42 42 42 42 42 0
1 43 43 43 43 43 43 43 43 43 43 43 0
1 43 43 43 43 43 43 43 43 44 44 44 0
1 44 44 44 44 44 44 44 44 44 44 44 0
1 44 44 44 44 44 44 44 45 45 45 45 0
1 45 45 45 45 45 45 45 45 45 45 45 0
1 45 45 45 46 46 46 46 46 46 46 46 0
1 46 46 46 46 46 46 46 46 46 46 46 0
1 47 47 47 47 47 47 47 47 47 47 47 0
1 48 48 48 48 48 48 48 48 48 48 48 0
1 48 48 48 48 48 48 48 48 49 49 49 0
1 49 49 49 49 49 49 49 49 49 49 49 0
1 49 49 49 49 49 49 49 49 49 49 49 0
1 50 50 50 50 50 50 50 50 50 50 50 0
1 51 51 51 51 51 51 51 51 51 51 51 0
1 51 51 51 51 51 51 51 52 52 52 52 0
1 52 52 52 52 52 52 52 52 52 52 52 0
1 52 52 52 52 52 52 52 52 52 52 52 0
1 53 53 53 53 53 53 53 53 53 53 53 0
1 53 53 53 53 53 53 53 54 54 54 54 0
1 54 54 54 54 54 54 54 54 54 54 54 0
1 55 55 55 55 55 55 55 55 55 55 55 0
1 55 55 55 55 55 55 55 55 55 55 55 0
1 55 55 55 56 56 56 56 56 56 56 56 0
1 56 56 56 56 56 56 57 57 57 57 57 0
1 57 57 57 57 57 57 57 57 57 57 57 0
1 57 58 58 58 58 58 58 58 58 58 58 0
1 58 58 58 58 58 59 59 59 59 59 59 0
1 59 59 59 59 59 59 59 59 59 59 59 0
1 59 59 59 59 59 60 60 60 60 60 60 0
1 60 60 60 60 60 60 60 60 60 60 60 0
1 61 61 61 61 61 61 61 61 61 61 61 0
1 61 61 61 61 61 61 61 61 61 61 61 0
1 61 61 61 61 61 62 62 62 62 62 62 0
1 62 62 62 62 62 62 62 62 62 62 62 0
1 62 62 62 63 63 63 63 63 63 63 63 0
1 63 63 63 63 63 63 63 63 64 64 64 0
1 64 64 64 64 64 64 64 64 64 64 64 0
1 64 64 64 64 64 64 64 64 65 65 65 0
1 65 65 65 65 65 65 65 65 65 65 65 0
1 65 66 66 66 66 66 66 66 66 66 66 0
1 66 66 66 66 66 66 66 67 67 67 67 0
1 67 67 67 67 67 67 67 67 67 67 67 0
1 67 67 67 67 68 68 68 68 68 68 68 0
1 68 68 68 68 69 69 69 69 69 69 69 0
1 69 69 69 69 69 69 69 69 69 69 69 0
1 70 70 70 70 70 70 70 70 70 70 70 0
1 70 70 70 71 71 71 71 71 71 71 71 0
1 71 71 71 71 71 71 72 72 72 72 72 0
1 72 72 72 72 72 72 72 72 72 72 72 0
1 72 72 72 72 72 72 72 72 72 73 73 0
1 73 73 73 73 73 73 73 73 73 73 73 0
1 73 73 73 74 74 74 74 74 74 74 74 0
1 74 74 74 74 74 74 74 74 74 74 74 0
1 74 74 74 74 75 75 75 75 75 75 75 0
1 75 75 75 75 75 75 75 75 75 75 75 0
1 75 75 75 75 76 76 76 76 76 76 76 0
1 76 76 76 76 76 76 76 76 76 76 76 0
1 76 76 76 76 76 77 77 77 77 77 77 0
1 77 77 77 77 77 77 77 77 77 77 77 0
1 77 77 77 77 78 78 78 78 78 78 78 0
1 78 78 78 78 78 78 78 78 78 78 78 0
1 78 78 79 79 79 79 79 79 79 79 79 0
1 79 79 79 79 79 79 79 79 80 80 80 0
1 80 80 80 80 80 80 80 80 80 80 80 0
1 80 80 80 80 80 80 80 80 80 81 81 0
1 81 81 81 81 81 81 81 81 81 81 81 0
1 81 81 81 81 81 81 81 81 81 81 81 0
1 82 82 82 82 82 82 82 82 82 82 82 0
1 82 82 82 83 83 83 83 83 83 83 83 0
1 83 83 83 83 83 83 83 83 83 83 83 0
1 83 83 83 83 83 83 84 84 84 84 84 0
1 84 84 84 84 84 84 84 84 84 84 84 0
1 85 85 85 85 85 85 85 85 85 85 85 0
1 85 85 85 85 85 85 86 86 86 86 86 0
1 86 86 86 86 86 86 86 86 86 86 86 0
1 86 86 87 87 87 87 87 87 87 87 87 0
1 87 87 87 87 87 87 87 87 87 87 87 0
1 87 87 87 87 88 88 88 88 88 88 88 0
1 88 88 88 88 88 89 89 89 89 89 89 0
1 89 89 89 89 89 89 89 89 89 89 89 0
1 89 89 90 90 90 90 90 90 90 90 90 0
1 90 90 90 90 90 90 90 90 90 90 90 0
1 91 91 91 91 91 91 91 91 91 92 92 0
1 92 92 92 92 92 92 92 92 92 92 92 0
1 92 92 92 92 92 92 92 92 93 93 93 0
1 93 93 93 93 93 93 93 93 93 93 93 0
1 93 93 93 93 94 94 94 94 94 94 94 0
1 94 94 94 94 94 94 94 94 94 94 94 0
1 95 95 95 95 95 95 95 95 95 95 95 0
1 95 95 95 96 96 96 96 96 96 96 96 0
1 96 96 96 96 96 96 96 96 97 97 97 0
1 97 97 97 97 97 97 97 97 97 97 97 0
1 97 97 97 97 97 97 97 98 98 98 98 0
1 98 98 98 98 98 98 98 98 98 98 98 0
1 99 99 99 99 99 99 99 99 99 99 99 0
1 99 99 99 99 99 99 100 100 100 100 100 0
1 100 100 100 100 100 100 100 100 100 100 100 0
1 100 100 100 100 100 100 100 0
1  0
1 313 330 339 398 419 436 465 584 596 757 759 0
1 828 832 845 920 1026 1029 1034 1072 1181 1184 1219 0
1 1258 1334 1338 1464 1553 1608 1742 1759 1795 1814 1835 0
1 1966 0
1  0
1 112 137 158 181 205 293 339 416 418 463 593 0
1 674 676 697 700 707 752 766 841 880 885 1078 0
1 1138 1166 1258 1264 1283 1325 1545 1617 1799 1815 1821 0
1 1890 1911 1925 1961 1969 0
1  0
1 16 17 29 84 123 124 130 160 218 236 397 0
1 535 675 852 869 1141 1172 1173 1291 1333 1373 1421 0
1 1636 1701 1707 1733 1780 1783 1920 0
1  0
1 279 330 415 458 463 525 548 559 561 575 686 0
1 724 1084 1159 1203 1400 1406 1469 1497 1520 1537 1571 0
1 1647 1687 1774 1805 1851 1886 0
1  0
1 94 96 120 145 148 188 219 257 297 317 378 0
1 425 430 653 684 719 758 837 882 898 905 909 0
1 1038 1040 1048 1120 1163 1203 1286 1304 1476 1521 1534 0
1 1663 1749 1801 1826 1834 1843 1889 1919 1929 1947 0
1  0
1 157 185 248 291 296 325 331 424 464 485 494 0
1 540 631 708 810 822 830 834 859 888 902 1006 0
1 1115 1192 1197 1318 1390 1424 1447 1639 1708 1813 1815 0
1 1926 0
1  0
1 52 66 67 81 161 291 319 361 362 365 424 0
1 459 465 556 566 681 715 951 991 995 1005 1033 0
1 1108 1124 1133 1295 1307 1347 1365 1369 1394 1448 1449 0
1 1677 1678 1764 1949 1963 0
1  0
